100
    1    37    37
    2    21    21
    3     3     3
    4    26    26
    5    25    25
    6    27    27
    7    22    22
    8     5     5
    9    15    15
   10    41    41
   11    19    19
   12    32    32
   13     4     4
   14    21    21
   15     7     7
   16    33    33
   17    26    26
   18    10    10
   19    17    17
   20    32    32
   21     7     7
   22    48    48
   23    18    18
   24    36    36
   25     3     3
   26    30    30
   27    17    17
   28     9     9
   29    44    44
   30    18    18
   31    14    14
   32    49    49
   33     8     8
   34    29    29
   35    43    43
   36    47    47
   37    38    38
   38    46    46
   39    15    15
   40     1     1
   41    20    20
   42    43    43
   43    45    45
   44    32    32
   45     5     5
   46    39    39
   47    32    32
   48    23    23
   49    38    38
   50    40    40
   51    21    21
   52    30    30
   53    35    35
   54    11    11
   55    15    15
   56    37    37
   57    33    33
   58    23    23
   59    16    16
   60    12    12
   61     3     3
   62    20    20
   63    29    29
   64    45    45
   65    27    27
   66    17    17
   67    48    48
   68    50    50
   69     1     1
   70     1     1
   71    10    10
   72    42    42
   73    29    29
   74    36    36
   75    14    14
   76    48    48
   77    21    21
   78     8     8
   79     6     6
   80    41    41
   81    26    26
   82    23    23
   83    45    45
   84    15    15
   85    31    31
   86    43    43
   87    43    43
   88    44    44
   89    10    10
   90     4     4
   91     6     6
   92    48    48
   93    29    29
   94    36    36
   95     5     5
   96    30    30
   97    38    38
   98    16    16
   99    33    33
  100    17    17
1687
